letting n =  10
letting blocks =  [[1, 1], [2, 5], [2, 6], [3, 8], [4, 3], [5, 8], [6, 3], [6, 5], [6, 7], [6, 8], [7, 1], [7, 3], [7, 8], [7, 10], [8, 8], [8, 9], [9, 5], [10, 2], [10, 3], [10, 4], [10, 6], [10, 9]]
